p edge 29 64
e 1 5
e 1 17
e 1 19
e 1 24
e 2 13
e 2 16
e 2 17
e 2 20
e 2 22
e 2 26
e 2 29
e 3 6
e 3 10
e 3 24
e 4 8
e 4 11
e 4 16
e 4 23
e 4 29
e 5 9
e 5 28
e 5 29
e 6 10
e 6 13
e 6 15
e 6 17
e 6 18
e 6 20
e 6 25
e 6 29
e 7 12
e 7 18
e 7 22
e 8 9
e 8 11
e 8 14
e 8 17
e 8 27
e 9 15
e 10 25
e 11 23
e 11 24
e 11 29
e 12 16
e 12 17
e 12 19
e 12 20
e 13 22
e 13 23
e 14 16
e 14 29
e 15 21
e 16 20
e 17 27
e 17 28
e 18 19
e 18 25
e 19 25
e 19 28
e 21 29
e 22 25
e 23 29
e 24 25
e 26 28
